unsat
(forall ((A (_ BitVec 20))
         (B (_ BitVec 20))
         (C (_ BitVec 20))
         (D (_ BitVec 20))
         (E (_ BitVec 20))
         (F (_ BitVec 20))
         (G (_ BitVec 20))
         (H (_ BitVec 20))
         (I (_ BitVec 20))
         (J (_ BitVec 20))
         (K (_ BitVec 20))
         (L (_ BitVec 17))
         (M (_ BitVec 1))
         (N (_ BitVec 1))
         (O (_ BitVec 18))
         (P (_ BitVec 20))
         (Q (_ BitVec 20))
         (R (_ BitVec 20))
         (S (_ BitVec 1))
         (T (_ BitVec 20))
         (U (_ BitVec 20))
         (V (_ BitVec 20))
         (W (_ BitVec 20))
         (X (_ BitVec 20))
         (Y (_ BitVec 18))
         (Z (_ BitVec 20))
         (A1 (_ BitVec 20))
         (B1 (_ BitVec 20))
         (C1 (_ BitVec 20))
         (D1 (_ BitVec 20))
         (E1 (_ BitVec 17))
         (F1 (_ BitVec 1))
         (G1 (_ BitVec 20))
         (H1 (_ BitVec 20))
         (I1 (_ BitVec 20))
         (J1 (_ BitVec 22))
         (K1 (_ BitVec 20))
         (L1 (_ BitVec 20))
         (M1 (_ BitVec 20))
         (N1 (_ BitVec 1))
         (O1 (_ BitVec 38))
         (P1 (_ BitVec 20))
         (Q1 (_ BitVec 20))
         (R1 (_ BitVec 1))
         (S1 (_ BitVec 1))
         (T1 (_ BitVec 20))
         (U1 (_ BitVec 20))
         (V1 (_ BitVec 20))
         (W1 (_ BitVec 1))
         (X1 (_ BitVec 20))
         (Y1 (_ BitVec 18))
         (Z1 (_ BitVec 20))
         (A2 (_ BitVec 20))
         (B2 (_ BitVec 22))
         (C2 (_ BitVec 20))
         (D2 (_ BitVec 20))
         (E2 (_ BitVec 20))
         (F2 (_ BitVec 20))
         (G2 (_ BitVec 20))
         (H2 (_ BitVec 1))
         (I2 (_ BitVec 14))
         (J2 (_ BitVec 38))
         (K2 (_ BitVec 20))
         (L2 (_ BitVec 16))
         (M2 (_ BitVec 38))
         (N2 (_ BitVec 30))
         (O2 (_ BitVec 30))
         (P2 (_ BitVec 20))
         (Q2 (_ BitVec 20))
         (R2 (_ BitVec 1))
         (S2 (_ BitVec 20))
         (T2 (_ BitVec 20))
         (U2 (_ BitVec 20))
         (V2 (_ BitVec 20))
         (W2 (_ BitVec 16))
         (X2 (_ BitVec 30))
         (Y2 (_ BitVec 1))
         (Z2 (_ BitVec 38))
         (A3 (_ BitVec 30)))
  (! (let ((a!1 (or ((_ bit2bool 0) Q)
                    ((_ bit2bool 0) W)
                    (not (= ((_ extract 0 0) X1) #b1))))
           (a!2 (= ((_ extract 3 0) L)
                   (concat (bvadd ((_ extract 3 2) B2) ((_ extract 1 0) J1))
                           ((_ extract 1 0) B2)))))
     (let ((a!3 (and (or (not ((_ bit2bool 0) M)) (= N #b1))
                     a!1
                     (or ((_ bit2bool 1) D1)
                         ((_ bit2bool 2) D1)
                         (not ((_ bit2bool 0) D1))
                         a!2)
                     (or (= ((_ extract 3 0) O1) ((_ extract 3 0) E1))
                         ((_ bit2bool 1) I1)
                         ((_ bit2bool 2) I1)
                         (not ((_ bit2bool 0) I1))))))
       (= (INV!slice!1 A
                       B
                       C
                       D
                       E
                       F
                       G
                       H
                       I
                       J
                       K
                       L
                       M
                       N
                       O
                       P
                       Q
                       R
                       S
                       T
                       U
                       V
                       W
                       X
                       Y
                       Z
                       A1
                       B1
                       C1
                       D1
                       E1
                       F1
                       G1
                       H1
                       I1
                       J1
                       K1
                       L1
                       M1
                       N1
                       O1
                       P1
                       Q1
                       R1
                       S1
                       T1
                       U1
                       V1
                       W1
                       X1
                       Y1
                       Z1
                       A2
                       B2
                       C2
                       D2
                       E2
                       F2
                       G2
                       H2
                       I2
                       J2
                       K2
                       L2
                       M2
                       N2
                       O2
                       P2
                       Q2
                       R2
                       S2
                       T2
                       U2
                       V2
                       W2
                       X2
                       Y2
                       Z2
                       A3)
          a!3)))
     :weight 0))
